
******************************************************************************
This program contains Ipopt, a library for large-scale nonlinear optimization.
 Ipopt is released as open source code under the Eclipse Public License (EPL).
         For more information visit http://projects.coin-or.org/Ipopt

This version of Ipopt was compiled from source code available at
    https://github.com/IDAES/Ipopt as part of the Institute for the Design of
    Advanced Energy Systems Process Systems Engineering Framework (IDAES PSE
    Framework) Copyright (c) 2018-2019. See https://github.com/IDAES/idaes-pse.

This version of Ipopt was compiled using HSL, a collection of Fortran codes
    for large-scale scientific computation.  All technical papers, sales and
    publicity material resulting from use of the HSL codes within IPOPT must
    contain the following acknowledgement:
        HSL, a collection of Fortran codes for large-scale scientific
        computation. See http://www.hsl.rl.ac.uk.
******************************************************************************

This is Ipopt version 3.13.2, running with linear solver ma27.

Number of nonzeros in equality constraint Jacobian...:      958
Number of nonzeros in inequality constraint Jacobian.:        0
Number of nonzeros in Lagrangian Hessian.............:      832

Total number of variables............................:      416
                     variables with only lower bounds:      128
                variables with lower and upper bounds:      224
                     variables with only upper bounds:        0
Total number of equality constraints.................:      415
Total number of inequality constraints...............:        0
        inequality constraints with only lower bounds:        0
   inequality constraints with lower and upper bounds:        0
        inequality constraints with only upper bounds:        0

iter    objective    inf_pr   inf_du lg(mu)  ||d||  lg(rg) alpha_du alpha_pr  ls
   0  0.0000000e+00 5.27e-01 4.44e-16  -1.0 0.00e+00    -  0.00e+00 0.00e+00   0
   1  3.0879726e-01 2.72e-01 1.14e+03  -1.0 1.19e+05    -  7.18e-01 3.55e-01h  1
   2  3.1733149e-01 2.70e-01 1.13e+03  -1.0 6.34e+04    -  8.64e-01 7.62e-03h  1
   3  7.0453778e+00 2.41e-02 1.51e+04  -1.0 1.60e+05    -  8.41e-01 9.90e-01h  1
   4  8.4609944e+00 3.59e-04 1.89e+03  -1.0 2.16e+04    -  9.71e-01 9.90e-01h  1
   5  8.4927347e+00 3.72e-06 1.92e+01  -1.0 5.48e+02    -  9.90e-01 9.90e-01h  1
   6  8.5731641e+00 5.15e-06 2.43e+02  -1.0 1.51e+03    -  9.90e-01 9.90e-01h  1
   7  8.4899886e+00 6.27e-06 3.27e+05  -3.8 1.80e+03    -  1.00e+00 8.61e-01f  1
   8  8.4901940e+00 1.11e-09 2.59e+03  -3.8 4.70e+00    -  1.00e+00 1.00e+00h  1
   9  8.4901931e+00 9.54e-11 1.69e+07  -3.8 1.71e-02    -  1.00e+00 1.00e+00h  1
In iteration 9, 32 Slacks too small, adjusting variable bounds
iter    objective    inf_pr   inf_du lg(mu)  ||d||  lg(rg) alpha_du alpha_pr  ls
  10  8.4901931e+00 2.60e-11 1.12e+11  -3.8 2.54e-06    -  1.00e+00 1.00e+00h  1
  11  8.4901931e+00 2.11e-11 7.36e+14  -3.8 2.04e-07    -  1.00e+00 1.56e-02h  7
  12  8.4901931e+00 4.63e-12 7.59e-02  -3.8 2.80e-07    -  1.00e+00 1.00e+00H  1
  13  8.4901884e+00 2.07e-11 1.09e+11  -9.0 2.82e+00    -  1.00e+00 3.12e-02f  6
  14  8.4901884e+00 2.20e-11 1.09e+11  -9.0 2.73e+00    -  1.00e+00 6.10e-05h 15
  15  8.4901884e+00 2.31e-11 1.09e+11  -9.0 2.73e+00    -  1.00e+00 3.05e-05h 16
  16  8.4900426e+00 1.20e-11 1.47e-05  -9.0 2.73e+00    -  1.00e+00 1.00e+00F  1
  17  8.4900426e+00 2.01e-11 1.18e-05  -9.0 5.88e-07    -  1.00e+00 1.25e-01h  4
  18  8.4900426e+00 8.22e-12 1.16e-10  -9.0 1.84e-07    -  1.00e+00 1.00e+00H  1

Number of Iterations....: 18

                                   (scaled)                 (unscaled)
Objective...............:   8.4900426305218790e+00    8.4900426305218790e+00
Dual infeasibility......:   1.1641532182693481e-10    1.1641532182693481e-10
Constraint violation....:   8.2236439880034595e-12    8.2236439880034595e-12
Complementarity.........:   9.0909090909090931e-10    9.0909090909090931e-10
Overall NLP error.......:   8.2236439880034595e-12    9.0909090909090931e-10


Number of objective function evaluations             = 75
Number of objective gradient evaluations             = 19
Number of equality constraint evaluations            = 75
Number of inequality constraint evaluations          = 0
Number of equality constraint Jacobian evaluations   = 19
Number of inequality constraint Jacobian evaluations = 0
Number of Lagrangian Hessian evaluations             = 18
Total CPU secs in IPOPT (w/o function evaluations)   =      0.045
Total CPU secs in NLP function evaluations           =      0.855

EXIT: Optimal Solution Found.
